W=5;
H=5;

MAX_TIME=12;
MAX_TRACKS=12;

TARGET=(5,5);

TRAINS=[(5,1,TOP),(1,5,DOWN),(1,1,DOWN)];

INIT_POS=[
(1,1,STRAIGHT_TD),
(1,5,STRAIGHT_TD),
(3,3,ROCK),
(5,1,STRAIGHT_TD),
(5,5,STRAIGHT_RL),
];
TUNNEL_PAIRS=[
  (3, 1, RIGHT, 3, 5, LEFT),
  (1, 3, DOWN, 5, 3, TOP),
];

GATES=[];
ACTIVATIONS=[];

DSWITCHES=[];

STATIONS=[];
